letting initialStacks = [46, 34, 13, 38, 44, 19, 5, 48, 21, 35, 47, 20, 9, 18, 1, 29, 33, 25, 7, 45, 10, 41, 17, 37, 6, 11, 28, 51, 42, 16, 32, 30, 15, 36, 31, 27, 49, 43, 22, 40, 24, 26, 8, 2, 14, 12, 39, 23, 3, 4, 50]
